certificates/rado_a5_c157_N31.cnf
c Rad2 upper bound instance: x1 + 5*x2 - x3 = 157, interval [1,31]
p cnf 31 198
1 3 31 0
-1 -3 -31 0
2 4 31 0
-2 -4 -31 0
3 5 31 0
-3 -5 -31 0
4 6 31 0
-4 -6 -31 0
5 7 31 0
-5 -7 -31 0
1 8 30 0
-1 -8 -30 0
6 8 31 0
-6 -8 -31 0
2 9 30 0
-2 -9 -30 0
7 9 31 0
-7 -9 -31 0
3 10 30 0
-3 -10 -30 0
8 10 31 0
-8 -10 -31 0
4 11 30 0
-4 -11 -30 0
9 11 31 0
-9 -11 -31 0
5 12 30 0
-5 -12 -30 0
10 12 31 0
-10 -12 -31 0
1 13 29 0
-1 -13 -29 0
6 13 30 0
-6 -13 -30 0
11 13 31 0
-11 -13 -31 0
2 14 29 0
-2 -14 -29 0
7 14 30 0
-7 -14 -30 0
12 14 31 0
-12 -14 -31 0
3 15 29 0
-3 -15 -29 0
8 15 30 0
-8 -15 -30 0
13 15 31 0
-13 -15 -31 0
4 16 29 0
-4 -16 -29 0
9 16 30 0
-9 -16 -30 0
14 16 31 0
-14 -16 -31 0
5 17 29 0
-5 -17 -29 0
10 17 30 0
-10 -17 -30 0
15 17 31 0
-15 -17 -31 0
1 18 28 0
-1 -18 -28 0
6 18 29 0
-6 -18 -29 0
11 18 30 0
-11 -18 -30 0
16 18 31 0
-16 -18 -31 0
2 19 28 0
-2 -19 -28 0
7 19 29 0
-7 -19 -29 0
12 19 30 0
-12 -19 -30 0
17 19 31 0
-17 -19 -31 0
3 20 28 0
-3 -20 -28 0
8 20 29 0
-8 -20 -29 0
13 20 30 0
-13 -20 -30 0
18 20 31 0
-18 -20 -31 0
4 21 28 0
-4 -21 -28 0
9 21 29 0
-9 -21 -29 0
14 21 30 0
-14 -21 -30 0
19 21 31 0
-19 -21 -31 0
5 22 28 0
-5 -22 -28 0
10 22 29 0
-10 -22 -29 0
15 22 30 0
-15 -22 -30 0
20 22 31 0
-20 -22 -31 0
1 23 27 0
-1 -23 -27 0
6 23 28 0
-6 -23 -28 0
11 23 29 0
-11 -23 -29 0
16 23 30 0
-16 -23 -30 0
21 23 31 0
-21 -23 -31 0
2 24 27 0
-2 -24 -27 0
7 24 28 0
-7 -24 -28 0
12 24 29 0
-12 -24 -29 0
17 24 30 0
-17 -24 -30 0
22 24 31 0
-22 -24 -31 0
3 25 27 0
-3 -25 -27 0
8 25 28 0
-8 -25 -28 0
13 25 29 0
-13 -25 -29 0
18 25 30 0
-18 -25 -30 0
23 25 31 0
-23 -25 -31 0
4 26 27 0
-4 -26 -27 0
9 26 28 0
-9 -26 -28 0
14 26 29 0
-14 -26 -29 0
19 26 30 0
-19 -26 -30 0
24 26 31 0
-24 -26 -31 0
5 27 0
-5 -27 0
10 27 28 0
-10 -27 -28 0
15 27 29 0
-15 -27 -29 0
20 27 30 0
-20 -27 -30 0
25 27 31 0
-25 -27 -31 0
1 26 28 0
-1 -26 -28 0
6 27 28 0
-6 -27 -28 0
11 28 0
-11 -28 0
16 28 29 0
-16 -28 -29 0
21 28 30 0
-21 -28 -30 0
26 28 31 0
-26 -28 -31 0
2 26 29 0
-2 -26 -29 0
7 27 29 0
-7 -27 -29 0
12 28 29 0
-12 -28 -29 0
17 29 0
-17 -29 0
22 29 30 0
-22 -29 -30 0
27 29 31 0
-27 -29 -31 0
3 26 30 0
-3 -26 -30 0
8 27 30 0
-8 -27 -30 0
13 28 30 0
-13 -28 -30 0
18 29 30 0
-18 -29 -30 0
23 30 0
-23 -30 0
28 30 31 0
-28 -30 -31 0
4 26 31 0
-4 -26 -31 0
9 27 31 0
-9 -27 -31 0
14 28 31 0
-14 -28 -31 0
19 29 31 0
-19 -29 -31 0
24 30 31 0
-24 -30 -31 0
29 31 0
-29 -31 0
