certificates/rado_a5_c157_N31.drat
-31 0
29 0
-17 0
15 0
19 0
-3 0
-27 0
-7 0
1 0
5 0
25 0
9 0
-13 0
-21 0
11 0
23 0
0
